\Problem name: MIN custos totais

Minimize
OBJROW: 100 x(a1,0) + 100 x(a1,1) + 100 x(a1,2) + 161.60000 x(a2,0) + 161.60000 x(a2,1) + 161.60000 x(a2,2) + 161.60000 x(a3,0) + 161.60000 x(a3,1) + 161.60000 x(a3,2) + 117.25000 x(a4,0)
 + 117.25000 x(a4,1) + 117.25000 x(a4,2) + 220.54000 x(b1,0) + 220.54000 x(b1,1) + 220.54000 x(b1,2) + 220.17000 x(b2,0) + 220.17000 x(b2,1) + 220.17000 x(b2,2) + 220.54000 x(b3,0) + 220.54000 x(b3,1)
 + 220.54000 x(b3,2) + 262.19000 x(b4,0) + 262.19000 x(b4,1) + 262.19000 x(b4,2) + 56.63000 x(c1,0) + 56.63000 x(c1,1) + 56.63000 x(c1,2) + 65.55000 x(d1,0) + 65.55000 x(d1,1) + 65.55000 x(d1,2)
 + 272.94000 x(e1,0) + 272.94000 x(e1,1) + 272.94000 x(e1,2) + 152.51000 x(f1,0) + 152.51000 x(f1,1) + 152.51000 x(f1,2) + 86 x(g1,0) + 86 x(g1,1) + 86 x(g1,2) + 53 x(h1,0)
 + 53 x(h1,1) + 53 x(h1,2) + 0.73996 y(a1,0) + 0.73996 y(a1,1) + 0.73996 y(a1,2) + 1.19578 y(a2,0) + 1.19578 y(a2,1) + 1.19578 y(a2,2) + 1.19578 y(a3,0) + 1.19578 y(a3,1)
 + 1.19578 y(a3,2) + 0.86761 y(a4,0) + 0.86761 y(a4,1) + 0.86761 y(a4,2) + 1.63191 y(b1,0) + 1.63191 y(b1,1) + 1.63191 y(b1,2) + 1.62918 y(b2,0) + 1.62918 y(b2,1) + 1.62918 y(b2,2)
 + 1.63191 y(b3,0) + 1.63191 y(b3,1) + 1.63191 y(b3,2) + 1.94011 y(b4,0) + 1.94011 y(b4,1) + 1.94011 y(b4,2) + 0.84118 y(c1,0) + 0.84118 y(c1,1) + 0.84118 y(c1,2) + 0.48505 y(d1,0)
 + 0.48505 y(d1,1) + 0.48505 y(d1,2) + 2.01966 y(e1,0) + 2.01966 y(e1,1) + 2.01966 y(e1,2) + 1.12852 y(f1,0) + 1.12852 y(f1,1) + 1.12852 y(f1,2) + 0.63637 y(g1,0) + 0.63637 y(g1,1)
 + 0.63637 y(g1,2) + 0.39218 y(h1,0) + 0.39218 y(h1,1) + 0.39218 y(h1,2)
Subject To
constr(0):  y(a1,0) = 2
constr(1):  y(a2,0) = 2
constr(2):  y(a3,0) = 2
constr(3):  y(a4,0) = 2
constr(4):  y(b1,0) = 2
constr(5):  y(b2,0) = 2
constr(6):  y(b3,0) = 2
constr(7):  y(b4,0) = 2
constr(8):  y(c1,0) = 2
constr(9):  y(d1,0) = 2
constr(10):  y(e1,0) = 2
constr(11):  y(f1,0) = 2
constr(12):  y(g1,0) = 2
constr(13):  y(h1,0) = 2
constr(14):  x(a1,1) + y(a1,0) - y(a1,1) = 3
constr(15):  x(a1,2) + y(a1,1) - y(a1,2) = 2
constr(16):  x(a2,1) + y(a2,0) - y(a2,1) = 2
constr(17):  x(a2,2) + y(a2,1) - y(a2,2) = 3
constr(18):  x(a3,1) + y(a3,0) - y(a3,1) = 3
constr(19):  x(a3,2) + y(a3,1) - y(a3,2) = 7
constr(20):  x(a4,1) + y(a4,0) - y(a4,1) = 3
constr(21):  x(a4,2) + y(a4,1) - y(a4,2) = 5
constr(22):  x(b1,1) + y(b1,0) - y(b1,1) = 1
constr(23):  x(b1,2) + y(b1,1) - y(b1,2) = 2
constr(24):  x(b2,1) + y(b2,0) - y(b2,1) = 1
constr(25):  x(b2,2) + y(b2,1) - y(b2,2) = 1
constr(26):  x(b3,1) + y(b3,0) - y(b3,1) = 1
constr(27):  x(b3,2) + y(b3,1) - y(b3,2) = 1
constr(28):  x(b4,1) + y(b4,0) - y(b4,1) = 1
constr(29):  x(b4,2) + y(b4,1) - y(b4,2) = 1
constr(30):  x(c1,1) + y(c1,0) - y(c1,1) = 5
constr(31):  x(c1,2) + y(c1,1) - y(c1,2) = 1
constr(32):  x(d1,1) + y(d1,0) - y(d1,1) = 30
constr(33):  x(d1,2) + y(d1,1) - y(d1,2) = 40
constr(34):  x(e1,1) + y(e1,0) - y(e1,1) = 6
constr(35):  x(e1,2) + y(e1,1) - y(e1,2) = 5
constr(36):  x(f1,1) + y(f1,0) - y(f1,1) = 5
constr(37):  x(f1,2) + y(f1,1) - y(f1,2) = 7
constr(38):  x(g1,1) + y(g1,0) - y(g1,1) = 110
constr(39):  x(g1,2) + y(g1,1) - y(g1,2) = 90
constr(40):  x(h1,1) + y(h1,0) - y(h1,1) = 5
constr(41):  x(h1,2) + y(h1,1) - y(h1,2) = 3
constr(42):  y(a1,1) >= 1
constr(43):  y(a1,2) >= 1
constr(44):  y(a2,1) >= 1
constr(45):  y(a2,2) >= 1
constr(46):  y(a3,1) >= 1
constr(47):  y(a3,2) >= 1
constr(48):  y(a4,1) >= 1
constr(49):  y(a4,2) >= 1
constr(50):  y(b1,1) >= 1
constr(51):  y(b1,2) >= 1
constr(52):  y(b2,1) >= 1
constr(53):  y(b2,2) >= 1
constr(54):  y(b3,1) >= 1
constr(55):  y(b3,2) >= 1
constr(56):  y(b4,1) >= 1
constr(57):  y(b4,2) >= 1
constr(58):  y(c1,1) >= 5
constr(59):  y(c1,2) >= 5
constr(60):  y(d1,1) >= 11
constr(61):  y(d1,2) >= 11
constr(62):  y(e1,1) >= 3
constr(63):  y(e1,2) >= 3
constr(64):  y(f1,1) >= 3
constr(65):  y(f1,2) >= 3
constr(66):  y(g1,1) >= 9
constr(67):  y(g1,2) >= 9
constr(68):  y(h1,1) >= 2
constr(69):  y(h1,2) >= 2
constr(70):  0.00360 y(a1,1) + 0.00360 y(a1,2) + 0.00360 y(a2,1) + 0.00360 y(a2,2) + 0.00360 y(a3,1) + 0.00360 y(a3,2) + 0.00360 y(a4,1) + 0.00360 y(a4,2) + 0.00547 y(b1,1) + 0.00547 y(b1,2)
 + 0.00547 y(b2,1) + 0.00547 y(b2,2) + 0.00547 y(b3,1) + 0.00547 y(b3,2) + 0.00547 y(b4,1) + 0.00547 y(b4,2) + 0.00543 y(c1,1) + 0.00543 y(c1,2) + 0.00543 y(d1,1) + 0.00543 y(d1,2)
 + 0.01580 y(e1,1) + 0.01580 y(e1,2) + 0.01239 y(f1,1) + 0.01239 y(f1,2) + 0.01239 y(g1,1) + 0.01239 y(g1,2) + 0.00852 y(h1,1) + 0.00852 y(h1,2) <= 56.32000
constr(71):  x(a1,1) >= -0
constr(72):  x(a1,2) >= -0
constr(73):  x(a2,1) >= -0
constr(74):  x(a2,2) >= -0
constr(75):  x(a3,1) >= -0
constr(76):  x(a3,2) >= -0
constr(77):  x(a4,1) >= -0
constr(78):  x(a4,2) >= -0
constr(79):  x(b1,1) >= -0
constr(80):  x(b1,2) >= -0
constr(81):  x(b2,1) >= -0
constr(82):  x(b2,2) >= -0
constr(83):  x(b3,1) >= -0
constr(84):  x(b3,2) >= -0
constr(85):  x(b4,1) >= -0
constr(86):  x(b4,2) >= -0
constr(87):  x(c1,1) >= -0
constr(88):  x(c1,2) >= -0
constr(89):  x(d1,1) >= -0
constr(90):  x(d1,2) >= -0
constr(91):  x(e1,1) >= -0
constr(92):  x(e1,2) >= -0
constr(93):  x(f1,1) >= -0
constr(94):  x(f1,2) >= -0
constr(95):  x(g1,1) >= -0
constr(96):  x(g1,2) >= -0
constr(97):  x(h1,1) >= -0
constr(98):  x(h1,2) >= -0
Bounds
Integers
x(a1,0) x(a1,1) x(a1,2) x(a2,0) x(a2,1) x(a2,2) x(a3,0) x(a3,1) x(a3,2) x(a4,0) 
x(a4,1) x(a4,2) x(b1,0) x(b1,1) x(b1,2) x(b2,0) x(b2,1) x(b2,2) x(b3,0) x(b3,1) 
x(b3,2) x(b4,0) x(b4,1) x(b4,2) x(c1,0) x(c1,1) x(c1,2) x(d1,0) x(d1,1) x(d1,2) 
x(e1,0) x(e1,1) x(e1,2) x(f1,0) x(f1,1) x(f1,2) x(g1,0) x(g1,1) x(g1,2) x(h1,0) 
x(h1,1) x(h1,2) y(a1,0) y(a1,1) y(a1,2) y(a2,0) y(a2,1) y(a2,2) y(a3,0) y(a3,1) 
y(a3,2) y(a4,0) y(a4,1) y(a4,2) y(b1,0) y(b1,1) y(b1,2) y(b2,0) y(b2,1) y(b2,2) 
y(b3,0) y(b3,1) y(b3,2) y(b4,0) y(b4,1) y(b4,2) y(c1,0) y(c1,1) y(c1,2) y(d1,0) 
y(d1,1) y(d1,2) y(e1,0) y(e1,1) y(e1,2) y(f1,0) y(f1,1) y(f1,2) y(g1,0) y(g1,1) 
y(g1,2) y(h1,0) y(h1,1) y(h1,2) 
End
